data/lp_files/q3/49_3.lp
\ Model foo
\ LP format - for model browsing. Use MPS format to capture full model detail.
Minimize
  z
Subject To
 allocateEach[1]: x[1,1] + x[2,1] + x[3,1] = 1
 allocateEach[2]: x[1,2] + x[2,2] + x[3,2] = 1
 allocateEach[3]: x[1,3] + x[2,3] + x[3,3] = 1
 allocateEach[4]: x[1,4] + x[2,4] + x[3,4] = 1
 allocateEach[5]: x[1,5] + x[2,5] + x[3,5] = 1
 allocateEach[6]: x[1,6] + x[2,6] + x[3,6] = 1
 allocateEach[7]: x[1,7] + x[2,7] + x[3,7] = 1
 allocateEach[8]: x[1,8] + x[2,8] + x[3,8] = 1
 allocateEach[9]: x[1,9] + x[2,9] + x[3,9] = 1
 allocateAllCash: cashProportion[1] + cashProportion[2] + cashProportion[3]
   = 1
 findWorstP[1,2]: z + 0.0328218593583326 cashProportion[1]
   - 0.0328218593583326 cashProportion[2] + 0.1542135061951259 x[1,1]
   + 0.0125215393452039 x[1,2] + 0.0850906703864774 x[1,3]
   + 0.1106424878969394 x[1,4] + 0.133798309674243 x[1,5]
   + 0.0694510544022319 x[1,6] + 0.151259538852876 x[1,7]
   + 0.1055550996963978 x[1,8] + 0.1446459341921719 x[1,9]
   - 0.1542135061951259 x[2,1] - 0.0125215393452039 x[2,2]
   - 0.0850906703864774 x[2,3] - 0.1106424878969394 x[2,4]
   - 0.133798309674243 x[2,5] - 0.0694510544022319 x[2,6]
   - 0.151259538852876 x[2,7] - 0.1055550996963978 x[2,8]
   - 0.1446459341921719 x[2,9] >= 0
 findWorstP[1,3]: z + 0.0328218593583326 cashProportion[1]
   - 0.0328218593583326 cashProportion[3] + 0.1542135061951259 x[1,1]
   + 0.0125215393452039 x[1,2] + 0.0850906703864774 x[1,3]
   + 0.1106424878969394 x[1,4] + 0.133798309674243 x[1,5]
   + 0.0694510544022319 x[1,6] + 0.151259538852876 x[1,7]
   + 0.1055550996963978 x[1,8] + 0.1446459341921719 x[1,9]
   - 0.1542135061951259 x[3,1] - 0.0125215393452039 x[3,2]
   - 0.0850906703864774 x[3,3] - 0.1106424878969394 x[3,4]
   - 0.133798309674243 x[3,5] - 0.0694510544022319 x[3,6]
   - 0.151259538852876 x[3,7] - 0.1055550996963978 x[3,8]
   - 0.1446459341921719 x[3,9] >= 0
 findWorstP[2,1]: z - 0.0379449039993929 cashProportion[1]
   + 0.0379449039993929 cashProportion[2] - 0.1398838885937619 x[1,1]
   - 0.060560066783031 x[1,2] - 0.180940274721105 x[1,3]
   - 0.0658533808909463 x[1,4] - 0.1520072854215679 x[1,5]
   - 0.0311337937315019 x[1,6] - 0.1135121803141838 x[1,7]
   - 0.111311375882219 x[1,8] - 0.1068528496622904 x[1,9]
   + 0.1398838885937619 x[2,1] + 0.060560066783031 x[2,2]
   + 0.180940274721105 x[2,3] + 0.0658533808909463 x[2,4]
   + 0.1520072854215679 x[2,5] + 0.0311337937315019 x[2,6]
   + 0.1135121803141838 x[2,7] + 0.111311375882219 x[2,8]
   + 0.1068528496622904 x[2,9] >= 0
 findWorstP[2,3]: z + 0.0379449039993929 cashProportion[2]
   - 0.0379449039993929 cashProportion[3] + 0.1398838885937619 x[2,1]
   + 0.060560066783031 x[2,2] + 0.180940274721105 x[2,3]
   + 0.0658533808909463 x[2,4] + 0.1520072854215679 x[2,5]
   + 0.0311337937315019 x[2,6] + 0.1135121803141838 x[2,7]
   + 0.111311375882219 x[2,8] + 0.1068528496622904 x[2,9]
   - 0.1398838885937619 x[3,1] - 0.060560066783031 x[3,2]
   - 0.180940274721105 x[3,3] - 0.0658533808909463 x[3,4]
   - 0.1520072854215679 x[3,5] - 0.0311337937315019 x[3,6]
   - 0.1135121803141838 x[3,7] - 0.111311375882219 x[3,8]
   - 0.1068528496622904 x[3,9] >= 0
 findWorstP[3,1]: z - 0.0431248248053992 cashProportion[1]
   + 0.0431248248053992 cashProportion[3] - 0.1794639584276689 x[1,1]
   - 0.0682450352545443 x[1,2] - 0.0404726480798672 x[1,3]
   - 0.2148694395929016 x[1,4] - 0.0751450072234081 x[1,5]
   - 0.1645858938698061 x[1,6] - 0.0973327295857861 x[1,7]
   - 0.0707247126808547 x[1,8] - 0.0460357504797637 x[1,9]
   + 0.1794639584276689 x[3,1] + 0.0682450352545443 x[3,2]
   + 0.0404726480798672 x[3,3] + 0.2148694395929016 x[3,4]
   + 0.0751450072234081 x[3,5] + 0.1645858938698061 x[3,6]
   + 0.0973327295857861 x[3,7] + 0.0707247126808547 x[3,8]
   + 0.0460357504797637 x[3,9] >= 0
 findWorstP[3,2]: z - 0.0431248248053992 cashProportion[2]
   + 0.0431248248053992 cashProportion[3] - 0.1794639584276689 x[2,1]
   - 0.0682450352545443 x[2,2] - 0.0404726480798672 x[2,3]
   - 0.2148694395929016 x[2,4] - 0.0751450072234081 x[2,5]
   - 0.1645858938698061 x[2,6] - 0.0973327295857861 x[2,7]
   - 0.0707247126808547 x[2,8] - 0.0460357504797637 x[2,9]
   + 0.1794639584276689 x[3,1] + 0.0682450352545443 x[3,2]
   + 0.0404726480798672 x[3,3] + 0.2148694395929016 x[3,4]
   + 0.0751450072234081 x[3,5] + 0.1645858938698061 x[3,6]
   + 0.0973327295857861 x[3,7] + 0.0707247126808547 x[3,8]
   + 0.0460357504797637 x[3,9] >= 0
Bounds
 z <= 1
 -infinity <= cashProportion[1] <= 1
 -infinity <= cashProportion[2] <= 1
 -infinity <= cashProportion[3] <= 1
Binaries
 x[1,1] x[1,2] x[1,3] x[1,4] x[1,5] x[1,6] x[1,7] x[1,8] x[1,9] x[2,1]
 x[2,2] x[2,3] x[2,4] x[2,5] x[2,6] x[2,7] x[2,8] x[2,9] x[3,1] x[3,2]
 x[3,3] x[3,4] x[3,5] x[3,6] x[3,7] x[3,8] x[3,9]
End
